NAME : HealthcareRouting.11839.tour
COMMENT : Length = 11839
COMMENT : Found by LKH-3 [Keld Helsgaun] Sun Apr 20 20:37:48 2025
TYPE : TOUR
DIMENSION : 32
TOUR_SECTION
20
22
24
25
23
16
18
19
31
17
1
5
3
14
12
8
7
9
11
10
13
26
29
30
28
27
32
15
6
2
4
21
-1
EOF
